\ENCODING=ISO-8859-1
\Problem name: ilog.cplex

Minimize
 obj1: 105757 x1 + 93592 x2 + 91712 x3 + 106156 x4 + 97694 x5 + 108424 x6
       + 93274 x7 + 95280 x8 + 99408 x9 + 93134 x10 + 106766 x11 + 101994 x12
       + 105188 x13 + 101332 x14 + 106970 x15 + 102397 x16 + 98301 x17
       + 90337 x18 + 95561 x19 + 97192 x20 + 108879 x21 + 102406 x22
       + 94801 x23 + 102280 x24 + 106600 x25 + 90334 x26 + 105549 x27
       + 93741 x28 + 93553 x29 + 109041 x30 + 98393 x31 + 95814 x32
       + 102221 x33 + 97619 x34 + 94121 x35 + 103570 x36 + 103683 x37
       + 104707 x38 + 107692 x39 + 90791 x40 + 91948 x41 + 104218 x42
       + 98502 x43 + 107928 x44 + 91756 x45 + 108088 x46 + 108995 x47
       + 105071 x48 + 99233 x49 + 108089 x50 + 109681 x51 + 99617 x52
       + 96291 x53 + 92273 x54 + 97470 x55 + 95885 x56 + 100836 x57 + 97746 x58
       + 94057 x59 + 100552 x60 + 107568 x61 + 104914 x62 + 101860 x63
       + 99468 x64 + 91229 x65 + 93026 x66 + 90997 x67 + 103432 x68
       + 103653 x69 + 107989 x70 + 95352 x71 + 109279 x72 + 92008 x73
       + 99285 x74 + 103692 x75 + 93130 x76 + 96989 x77 + 93650 x78
       + 103008 x79 + 109109 x80 + 99192 x81 + 101488 x82 + 107223 x83
       + 92318 x84 + 108126 x85 + 100278 x86 + 105991 x87 + 100971 x88
       + 90254 x89 + 108174 x90 + 95516 x91 + 99326 x92 + 109943 x93
       + 90547 x94 + 106149 x95 + 100422 x96 + 90363 x97 + 92376 x98
       + 99982 x99 + 95617 x100 + 96526 x101 + 95979 x102 + 108943 x103
       + 108033 x104 + 104210 x105 + 91440 x106 + 100285 x107 + 103096 x108
       + 100317 x109 + 97780 x110 + 93336 x111 + 94693 x112 + 105380 x113
       + 93957 x114 + 99902 x115 + 109673 x116 + 90571 x117 + 109844 x118
       + 91977 x119 + 105499 x120 + 100966 x121 + 109196 x122 + 102929 x123
       + 99594 x124 + 90728 x125 + 97065 x126 + 99235 x127 + 93885 x128
       + 103609 x129 + 100122 x130 + 95404 x131 + 106999 x132 + 95780 x133
       + 97746 x134 + 101113 x135 + 101281 x136 + 92248 x137 + 106758 x138
       + 106695 x139 + 92129 x140 + 92960 x141 + 103317 x142 + 90731 x143
       + 93092 x144 + 100211 x145 + 101768 x146 + 91840 x147 + 101777 x148
       + 105063 x149 + 102138 x150 + 105469 x151 + 107668 x152 + 94821 x153
       + 90219 x154 + 99344 x155 + 102284 x156 + 109325 x157 + 91651 x158
       + 94736 x159 + 100281 x160 + 98535 x161 + 96955 x162 + 109669 x163
       + 106971 x164 + 90001 x165 + 104332 x166 + 105249 x167 + 106470 x168
       + 106390 x169 + 98362 x170 + 105222 x171 + 109632 x172 + 92122 x173
       + 90302 x174 + 91526 x175 + 96651 x176 + 93041 x177 + 94212 x178
       + 105154 x179 + 109244 x180 + 91515 x181 + 109745 x182 + 94214 x183
       + 91885 x184 + 107205 x185 + 94838 x186 + 99174 x187 + 106715 x188
       + 107178 x189 + 94513 x190 + 109073 x191 + 92581 x192 + 108139 x193
       + 105610 x194 + 101871 x195 + 105069 x196 + 98259 x197 + 101521 x198
       + 97117 x199 + 101437 x200 + 102050 x201 + 102551 x202 + 109364 x203
       + 100359 x204 + 108213 x205 + 94663 x206 + 100942 x207 + 98191 x208
       + 105208 x209 + 94715 x210 + 109473 x211 + 92620 x212 + 108916 x213
       + 99115 x214 + 91659 x215 + 99542 x216 + 104565 x217 + 107444 x218
       + 108137 x219 + 99844 x220 + 96954 x221 + 107426 x222 + 109223 x223
       + 90530 x224 + 102919 x225 + 103746 x226 + 100735 x227 + 109391 x228
       + 108867 x229 + 93699 x230 + 90231 x231 + 99707 x232 + 108881 x233
       + 93575 x234 + 104480 x235 + 92733 x236 + 92186 x237 + 106293 x238
       + 90099 x239 + 92634 x240 + 102712 x241 + 92998 x242 + 101032 x243
       + 91036 x244 + 108020 x245 + 109148 x246 + 98905 x247 + 96505 x248
       + 90047 x249 + 78006 x250 + 19696 x251 + 18647 x252 + 20764 x253
       + 19231 x254 + 21598 x255 + 20339 x256 + 20478 x257 + 18537 x258
       + 19940 x259 + 19714 x260 + 18096 x261 + 21788 x262 + 19035 x263
       + 20066 x264 + 19461 x265 + 21423 x266 + 20126 x267 + 21484 x268
       + 20921 x269 + 21814 x270 + 20578 x271 + 20290 x272 + 18211 x273
       + 20015 x274 + 21575 x275 + 18184 x276 + 18802 x277 + 18384 x278
       + 20004 x279 + 19052 x280 + 21720 x281 + 20718 x282 + 20711 x283
       + 19891 x284 + 21547 x285 + 18736 x286 + 19205 x287 + 21110 x288
       + 21381 x289 + 19239 x290 + 20113 x291 + 18729 x292 + 18953 x293
       + 18208 x294 + 21360 x295 + 20575 x296 + 20943 x297 + 20384 x298
       + 20000 x299 + 18224 x300
Subject To
 c1:   x1 + x5 + x10 - x23 + x26 + x28 - x32 - x33 - x34 + x36 + x43 - x45
       - x47  = 0
 c2:   x51 + x55 + x60 - x73 + x76 + x78 - x82 - x83 - x84 + x86 + x93 - x95
       - x97  = 0
 c3:   x101 + x105 + x110 - x123 + x126 + x128 - x132 - x133 - x134 + x136
       + x143 - x145 - x147  = 0
 c4:   x151 + x155 + x160 - x173 + x176 + x178 - x182 - x183 - x184 + x186
       + x193 - x195 - x197  = 0
 c5:   x201 + x205 + x210 - x223 + x226 + x228 - x232 - x233 - x234 + x236
       + x243 - x245 - x247  = 0
 c6:   - x7 - x13 + x15 - x19 - x25 - x31 + x39 + x47  = 1
 c7:   - x57 - x63 + x65 - x69 - x75 - x81 + x89 + x97  = 0
 c8:   - x107 - x113 + x115 - x119 - x125 - x131 + x139 + x147  = 0
 c9:   - x157 - x163 + x165 - x169 - x175 - x181 + x189 + x197  = 0
 c10:  - x207 - x213 + x215 - x219 - x225 - x231 + x239 + x247  = 0
 c11:  x9 - x16 + x18 - x21 - x22 + x24 + x34 - x37 + x40 - x43 + x44 - x46
       - x50  = 0
 c12:  x59 - x66 + x68 - x71 - x72 + x74 + x84 - x87 + x90 - x93 + x94 - x96
       - x100  = 0
 c13:  x109 - x116 + x118 - x121 - x122 + x124 + x134 - x137 + x140 - x143
       + x144 - x146 - x150  = -1
 c14:  x159 - x166 + x168 - x171 - x172 + x174 + x184 - x187 + x190 - x193
       + x194 - x196 - x200  = 0
 c15:  x209 - x216 + x218 - x221 - x222 + x224 + x234 - x237 + x240 - x243
       + x244 - x246 - x250  = 1
 c16:  - x6 - x9 - x11 - x15 + x17 + x21 - x30 + x31 + x35 + x49  = 0
 c17:  - x56 - x59 - x61 - x65 + x67 + x71 - x80 + x81 + x85 + x99  = 0
 c18:  - x106 - x109 - x111 - x115 + x117 + x121 - x130 + x131 + x135 + x149
        = 0
 c19:  - x156 - x159 - x161 - x165 + x167 + x171 - x180 + x181 + x185 + x199
        = 0
 c20:  - x206 - x209 - x211 - x215 + x217 + x221 - x230 + x231 + x235 + x249
        = 0
 c21:  x3 + x8 - x10 + x13 - x17 - x18 + x29 + x33 + x42 - x48 + x50  = 0
 c22:  x53 + x58 - x60 + x63 - x67 - x68 + x79 + x83 + x92 - x98 + x100  = 0
 c23:  x103 + x108 - x110 + x113 - x117 - x118 + x129 + x133 + x142 - x148
       + x150  = 0
 c24:  x153 + x158 - x160 + x163 - x167 - x168 + x179 + x183 + x192 - x198
       + x200  = 0
 c25:  x203 + x208 - x210 + x213 - x217 - x218 + x229 + x233 + x242 - x248
       + x250  = -1
 c26:  x4 + x6 + x25 - x26 + x37 + x41  = 0
 c27:  x54 + x56 + x75 - x76 + x87 + x91  = 1
 c28:  x104 + x106 + x125 - x126 + x137 + x141  = 1
 c29:  x154 + x156 + x175 - x176 + x187 + x191  = 0
 c30:  x204 + x206 + x225 - x226 + x237 + x241  = 0
 c31:  - x1 + x2 - x8 - x12 - x24 + x27 + x30 - x39 + x45  = 0
 c32:  - x51 + x52 - x58 - x62 - x74 + x77 + x80 - x89 + x95  = 0
 c33:  - x101 + x102 - x108 - x112 - x124 + x127 + x130 - x139 + x145  = 0
 c34:  - x151 + x152 - x158 - x162 - x174 + x177 + x180 - x189 + x195  = 0
 c35:  - x201 + x202 - x208 - x212 - x224 + x227 + x230 - x239 + x245  = 0
 c36:  - x2 - x4 + x12 + x14 + x16 + x19 + x23 - x29 - x36 - x38 - x40 - x49
        = -1
 c37:  - x52 - x54 + x62 + x64 + x66 + x69 + x73 - x79 - x86 - x88 - x90 - x99
        = 0
 c38:  - x102 - x104 + x112 + x114 + x116 + x119 + x123 - x129 - x136 - x138
       - x140 - x149  = 0
 c39:  - x152 - x154 + x162 + x164 + x166 + x169 + x173 - x179 - x186 - x188
       - x190 - x199  = 0
 c40:  - x202 - x204 + x212 + x214 + x216 + x219 + x223 - x229 - x236 - x238
       - x240 - x249  = 0
 c41:  - x14 + x20 - x28 - x35 - x41 - x42 + x46 + x48  = 0
 c42:  - x64 + x70 - x78 - x85 - x91 - x92 + x96 + x98  = -1
 c43:  - x114 + x120 - x128 - x135 - x141 - x142 + x146 + x148  = 0
 c44:  - x164 + x170 - x178 - x185 - x191 - x192 + x196 + x198  = -1
 c45:  - x214 + x220 - x228 - x235 - x241 - x242 + x246 + x248  = 0
 c46:  - x3 - x5 + x7 + x11 - x20 + x22 - x27 + x32 + x38 - x44  = 0
 c47:  - x53 - x55 + x57 + x61 - x70 + x72 - x77 + x82 + x88 - x94  = 0
 c48:  - x103 - x105 + x107 + x111 - x120 + x122 - x127 + x132 + x138 - x144
        = 0
 c49:  - x153 - x155 + x157 + x161 - x170 + x172 - x177 + x182 + x188 - x194
        = 1
 c50:  - x203 - x205 + x207 + x211 - x220 + x222 - x227 + x232 + x238 - x244
        = 0
 c51:  4 x1 + 4 x51 + 4 x101 + 4 x151 + 4 x201 - 2 x251 <= 0
 c52:  4 x2 + 4 x52 + 4 x102 + 4 x152 + 4 x202 - 2 x252 <= 0
 c53:  4 x3 + 4 x53 + 4 x103 + 4 x153 + 4 x203 - 2 x253 <= 0
 c54:  4 x4 + 4 x54 + 4 x104 + 4 x154 + 4 x204 - 2 x254 <= 0
 c55:  4 x5 + 4 x55 + 4 x105 + 4 x155 + 4 x205 - 2 x255 <= 0
 c56:  4 x6 + 4 x56 + 4 x106 + 4 x156 + 4 x206 - 2 x256 <= 0
 c57:  4 x7 + 4 x57 + 4 x107 + 4 x157 + 4 x207 - 2 x257 <= 0
 c58:  4 x8 + 4 x58 + 4 x108 + 4 x158 + 4 x208 - 2 x258 <= 0
 c59:  4 x9 + 4 x59 + 4 x109 + 4 x159 + 4 x209 - 2 x259 <= 0
 c60:  4 x10 + 4 x60 + 4 x110 + 4 x160 + 4 x210 - 2 x260 <= 0
 c61:  4 x11 + 4 x61 + 4 x111 + 4 x161 + 4 x211 - 2 x261 <= 0
 c62:  4 x12 + 4 x62 + 4 x112 + 4 x162 + 4 x212 - 2 x262 <= 0
 c63:  4 x13 + 4 x63 + 4 x113 + 4 x163 + 4 x213 - 2 x263 <= 0
 c64:  4 x14 + 4 x64 + 4 x114 + 4 x164 + 4 x214 - 2 x264 <= 0
 c65:  4 x15 + 4 x65 + 4 x115 + 4 x165 + 4 x215 - 2 x265 <= 0
 c66:  4 x16 + 4 x66 + 4 x116 + 4 x166 + 4 x216 - 2 x266 <= 0
 c67:  4 x17 + 4 x67 + 4 x117 + 4 x167 + 4 x217 - 2 x267 <= 0
 c68:  4 x18 + 4 x68 + 4 x118 + 4 x168 + 4 x218 - 2 x268 <= 0
 c69:  4 x19 + 4 x69 + 4 x119 + 4 x169 + 4 x219 - 2 x269 <= 0
 c70:  4 x20 + 4 x70 + 4 x120 + 4 x170 + 4 x220 - 2 x270 <= 0
 c71:  4 x21 + 4 x71 + 4 x121 + 4 x171 + 4 x221 - 2 x271 <= 0
 c72:  4 x22 + 4 x72 + 4 x122 + 4 x172 + 4 x222 - 2 x272 <= 0
 c73:  4 x23 + 4 x73 + 4 x123 + 4 x173 + 4 x223 - 2 x273 <= 0
 c74:  4 x24 + 4 x74 + 4 x124 + 4 x174 + 4 x224 - 2 x274 <= 0
 c75:  4 x25 + 4 x75 + 4 x125 + 4 x175 + 4 x225 - 2 x275 <= 0
 c76:  4 x26 + 4 x76 + 4 x126 + 4 x176 + 4 x226 - 2 x276 <= 0
 c77:  4 x27 + 4 x77 + 4 x127 + 4 x177 + 4 x227 - 2 x277 <= 0
 c78:  4 x28 + 4 x78 + 4 x128 + 4 x178 + 4 x228 - 2 x278 <= 0
 c79:  4 x29 + 4 x79 + 4 x129 + 4 x179 + 4 x229 - 2 x279 <= 0
 c80:  4 x30 + 4 x80 + 4 x130 + 4 x180 + 4 x230 - 2 x280 <= 0
 c81:  4 x31 + 4 x81 + 4 x131 + 4 x181 + 4 x231 - 2 x281 <= 0
 c82:  4 x32 + 4 x82 + 4 x132 + 4 x182 + 4 x232 - 2 x282 <= 0
 c83:  4 x33 + 4 x83 + 4 x133 + 4 x183 + 4 x233 - 2 x283 <= 0
 c84:  4 x34 + 4 x84 + 4 x134 + 4 x184 + 4 x234 - 2 x284 <= 0
 c85:  4 x35 + 4 x85 + 4 x135 + 4 x185 + 4 x235 - 2 x285 <= 0
 c86:  4 x36 + 4 x86 + 4 x136 + 4 x186 + 4 x236 - 2 x286 <= 0
 c87:  4 x37 + 4 x87 + 4 x137 + 4 x187 + 4 x237 - 2 x287 <= 0
 c88:  4 x38 + 4 x88 + 4 x138 + 4 x188 + 4 x238 - 2 x288 <= 0
 c89:  4 x39 + 4 x89 + 4 x139 + 4 x189 + 4 x239 - 2 x289 <= 0
 c90:  4 x40 + 4 x90 + 4 x140 + 4 x190 + 4 x240 - 2 x290 <= 0
 c91:  4 x41 + 4 x91 + 4 x141 + 4 x191 + 4 x241 - 2 x291 <= 0
 c92:  4 x42 + 4 x92 + 4 x142 + 4 x192 + 4 x242 - 2 x292 <= 0
 c93:  4 x43 + 4 x93 + 4 x143 + 4 x193 + 4 x243 - 2 x293 <= 0
 c94:  4 x44 + 4 x94 + 4 x144 + 4 x194 + 4 x244 - 2 x294 <= 0
 c95:  4 x45 + 4 x95 + 4 x145 + 4 x195 + 4 x245 - 2 x295 <= 0
 c96:  4 x46 + 4 x96 + 4 x146 + 4 x196 + 4 x246 - 2 x296 <= 0
 c97:  4 x47 + 4 x97 + 4 x147 + 4 x197 + 4 x247 - 2 x297 <= 0
 c98:  4 x48 + 4 x98 + 4 x148 + 4 x198 + 4 x248 - 2 x298 <= 0
 c99:  4 x49 + 4 x99 + 4 x149 + 4 x199 + 4 x249 - 2 x299 <= 0
 c100: 4 x50 + 4 x100 + 4 x150 + 4 x200 + 4 x250 - 2 x300 <= 0
Bounds
 0 <= x1 <= 1
 0 <= x2 <= 1
 0 <= x3 <= 1
 0 <= x4 <= 1
 0 <= x5 <= 1
 0 <= x6 <= 1
 0 <= x7 <= 1
 0 <= x8 <= 1
 0 <= x9 <= 1
 0 <= x10 <= 1
 0 <= x11 <= 1
 0 <= x12 <= 1
 0 <= x13 <= 1
 0 <= x14 <= 1
 0 <= x15 <= 1
 0 <= x16 <= 1
 0 <= x17 <= 1
 0 <= x18 <= 1
 0 <= x19 <= 1
 0 <= x20 <= 1
 0 <= x21 <= 1
 0 <= x22 <= 1
 0 <= x23 <= 1
 0 <= x24 <= 1
 0 <= x25 <= 1
 0 <= x26 <= 1
 0 <= x27 <= 1
 0 <= x28 <= 1
 0 <= x29 <= 1
 0 <= x30 <= 1
 0 <= x31 <= 1
 0 <= x32 <= 1
 0 <= x33 <= 1
 0 <= x34 <= 1
 0 <= x35 <= 1
 0 <= x36 <= 1
 0 <= x37 <= 1
 0 <= x38 <= 1
 0 <= x39 <= 1
 0 <= x40 <= 1
 0 <= x41 <= 1
 0 <= x42 <= 1
 0 <= x43 <= 1
 0 <= x44 <= 1
 0 <= x45 <= 1
 0 <= x46 <= 1
 0 <= x47 <= 1
 0 <= x48 <= 1
 0 <= x49 <= 1
 0 <= x50 <= 1
 0 <= x51 <= 1
 0 <= x52 <= 1
 0 <= x53 <= 1
 0 <= x54 <= 1
 0 <= x55 <= 1
 0 <= x56 <= 1
 0 <= x57 <= 1
 0 <= x58 <= 1
 0 <= x59 <= 1
 0 <= x60 <= 1
 0 <= x61 <= 1
 0 <= x62 <= 1
 0 <= x63 <= 1
 0 <= x64 <= 1
 0 <= x65 <= 1
 0 <= x66 <= 1
 0 <= x67 <= 1
 0 <= x68 <= 1
 0 <= x69 <= 1
 0 <= x70 <= 1
 0 <= x71 <= 1
 0 <= x72 <= 1
 0 <= x73 <= 1
 0 <= x74 <= 1
 0 <= x75 <= 1
 0 <= x76 <= 1
 0 <= x77 <= 1
 0 <= x78 <= 1
 0 <= x79 <= 1
 0 <= x80 <= 1
 0 <= x81 <= 1
 0 <= x82 <= 1
 0 <= x83 <= 1
 0 <= x84 <= 1
 0 <= x85 <= 1
 0 <= x86 <= 1
 0 <= x87 <= 1
 0 <= x88 <= 1
 0 <= x89 <= 1
 0 <= x90 <= 1
 0 <= x91 <= 1
 0 <= x92 <= 1
 0 <= x93 <= 1
 0 <= x94 <= 1
 0 <= x95 <= 1
 0 <= x96 <= 1
 0 <= x97 <= 1
 0 <= x98 <= 1
 0 <= x99 <= 1
 0 <= x100 <= 1
 0 <= x101 <= 1
 0 <= x102 <= 1
 0 <= x103 <= 1
 0 <= x104 <= 1
 0 <= x105 <= 1
 0 <= x106 <= 1
 0 <= x107 <= 1
 0 <= x108 <= 1
 0 <= x109 <= 1
 0 <= x110 <= 1
 0 <= x111 <= 1
 0 <= x112 <= 1
 0 <= x113 <= 1
 0 <= x114 <= 1
 0 <= x115 <= 1
 0 <= x116 <= 1
 0 <= x117 <= 1
 0 <= x118 <= 1
 0 <= x119 <= 1
 0 <= x120 <= 1
 0 <= x121 <= 1
 0 <= x122 <= 1
 0 <= x123 <= 1
 0 <= x124 <= 1
 0 <= x125 <= 1
 0 <= x126 <= 1
 0 <= x127 <= 1
 0 <= x128 <= 1
 0 <= x129 <= 1
 0 <= x130 <= 1
 0 <= x131 <= 1
 0 <= x132 <= 1
 0 <= x133 <= 1
 0 <= x134 <= 1
 0 <= x135 <= 1
 0 <= x136 <= 1
 0 <= x137 <= 1
 0 <= x138 <= 1
 0 <= x139 <= 1
 0 <= x140 <= 1
 0 <= x141 <= 1
 0 <= x142 <= 1
 0 <= x143 <= 1
 0 <= x144 <= 1
 0 <= x145 <= 1
 0 <= x146 <= 1
 0 <= x147 <= 1
 0 <= x148 <= 1
 0 <= x149 <= 1
 0 <= x150 <= 1
 0 <= x151 <= 1
 0 <= x152 <= 1
 0 <= x153 <= 1
 0 <= x154 <= 1
 0 <= x155 <= 1
 0 <= x156 <= 1
 0 <= x157 <= 1
 0 <= x158 <= 1
 0 <= x159 <= 1
 0 <= x160 <= 1
 0 <= x161 <= 1
 0 <= x162 <= 1
 0 <= x163 <= 1
 0 <= x164 <= 1
 0 <= x165 <= 1
 0 <= x166 <= 1
 0 <= x167 <= 1
 0 <= x168 <= 1
 0 <= x169 <= 1
 0 <= x170 <= 1
 0 <= x171 <= 1
 0 <= x172 <= 1
 0 <= x173 <= 1
 0 <= x174 <= 1
 0 <= x175 <= 1
 0 <= x176 <= 1
 0 <= x177 <= 1
 0 <= x178 <= 1
 0 <= x179 <= 1
 0 <= x180 <= 1
 0 <= x181 <= 1
 0 <= x182 <= 1
 0 <= x183 <= 1
 0 <= x184 <= 1
 0 <= x185 <= 1
 0 <= x186 <= 1
 0 <= x187 <= 1
 0 <= x188 <= 1
 0 <= x189 <= 1
 0 <= x190 <= 1
 0 <= x191 <= 1
 0 <= x192 <= 1
 0 <= x193 <= 1
 0 <= x194 <= 1
 0 <= x195 <= 1
 0 <= x196 <= 1
 0 <= x197 <= 1
 0 <= x198 <= 1
 0 <= x199 <= 1
 0 <= x200 <= 1
 0 <= x201 <= 1
 0 <= x202 <= 1
 0 <= x203 <= 1
 0 <= x204 <= 1
 0 <= x205 <= 1
 0 <= x206 <= 1
 0 <= x207 <= 1
 0 <= x208 <= 1
 0 <= x209 <= 1
 0 <= x210 <= 1
 0 <= x211 <= 1
 0 <= x212 <= 1
 0 <= x213 <= 1
 0 <= x214 <= 1
 0 <= x215 <= 1
 0 <= x216 <= 1
 0 <= x217 <= 1
 0 <= x218 <= 1
 0 <= x219 <= 1
 0 <= x220 <= 1
 0 <= x221 <= 1
 0 <= x222 <= 1
 0 <= x223 <= 1
 0 <= x224 <= 1
 0 <= x225 <= 1
 0 <= x226 <= 1
 0 <= x227 <= 1
 0 <= x228 <= 1
 0 <= x229 <= 1
 0 <= x230 <= 1
 0 <= x231 <= 1
 0 <= x232 <= 1
 0 <= x233 <= 1
 0 <= x234 <= 1
 0 <= x235 <= 1
 0 <= x236 <= 1
 0 <= x237 <= 1
 0 <= x238 <= 1
 0 <= x239 <= 1
 0 <= x240 <= 1
 0 <= x241 <= 1
 0 <= x242 <= 1
 0 <= x243 <= 1
 0 <= x244 <= 1
 0 <= x245 <= 1
 0 <= x246 <= 1
 0 <= x247 <= 1
 0 <= x248 <= 1
 0 <= x249 <= 1
 0 <= x250 <= 1
 0 <= x251 <= 1
 0 <= x252 <= 1
 0 <= x253 <= 1
 0 <= x254 <= 1
 0 <= x255 <= 1
 0 <= x256 <= 1
 0 <= x257 <= 1
 0 <= x258 <= 1
 0 <= x259 <= 1
 0 <= x260 <= 1
 0 <= x261 <= 1
 0 <= x262 <= 1
 0 <= x263 <= 1
 0 <= x264 <= 1
 0 <= x265 <= 1
 0 <= x266 <= 1
 0 <= x267 <= 1
 0 <= x268 <= 1
 0 <= x269 <= 1
 0 <= x270 <= 1
 0 <= x271 <= 1
 0 <= x272 <= 1
 0 <= x273 <= 1
 0 <= x274 <= 1
 0 <= x275 <= 1
 0 <= x276 <= 1
 0 <= x277 <= 1
 0 <= x278 <= 1
 0 <= x279 <= 1
 0 <= x280 <= 1
 0 <= x281 <= 1
 0 <= x282 <= 1
 0 <= x283 <= 1
 0 <= x284 <= 1
 0 <= x285 <= 1
 0 <= x286 <= 1
 0 <= x287 <= 1
 0 <= x288 <= 1
 0 <= x289 <= 1
 0 <= x290 <= 1
 0 <= x291 <= 1
 0 <= x292 <= 1
 0 <= x293 <= 1
 0 <= x294 <= 1
 0 <= x295 <= 1
 0 <= x296 <= 1
 0 <= x297 <= 1
 0 <= x298 <= 1
 0 <= x299 <= 1
 0 <= x300 <= 1
Binaries
 x251  x252  x253  x254  x255  x256  x257  x258  x259  x260  x261  x262  x263 
 x264  x265  x266  x267  x268  x269  x270  x271  x272  x273  x274  x275  x276 
 x277  x278  x279  x280  x281  x282  x283  x284  x285  x286  x287  x288  x289 
 x290  x291  x292  x293  x294  x295  x296  x297  x298  x299  x300 
End
